(declare-fun y () Int)
(declare-fun x () Int)

(assert (
and (and (and (and (
not (= (/ (/ x 96) 62) (/ (/ y 83) 28))
) (
>= (/ (/ (* (* 58 y) 64) (/ 30 88)) 87) x
)) (
>= (+ x x) (/ (/ (/ y 93) 40) (* 84 (/ (/ 41 88) 98)))
)) (and (
<= (* (/ (* (* 33 59) 8) (* 17 10)) y) (+ (+ x x) 36)
) (
>= x (/ (/ (* y (/ (* 78 (* 57 76)) (* (* 71 54) 54))) 29) 29)
))) (and (and (and (
< (+ x (* x 25)) (* 48 y)
) (
<= (/ (/ 38 (* x 4)) (- (+ 56 x) x)) (/ y 96)
)) (
< (* (+ 30 (* x 27)) (- (/ x x) x)) y
)) (and (
>= (* 63 (* x x)) (/ (* (/ (* 60 75) 41) y) (/ 5 19))
) (
> (/ (* 20 y) (/ 55 32)) (+ x x)
)))
))